* ENCODING=ISO-8859-1
NAME          ./convert/K5020W20.KNP.mps
ROWS
 N  OBJROW            
 L  R0000000          
 L  IC0               
 L  IC1               
 L  IC2               
 L  IC3               
 L  IC4               
 L  IC5               
 L  IC6               
 L  IC7               
 L  IC8               
 L  IC9               
 L  IC10              
 L  IC11              
 L  IC12              
 L  IC13              
 L  IC14              
 L  IC15              
 L  IC16              
 L  IC17              
 L  IC18              
 L  IC19              
 L  interdictionBudget
COLUMNS
    MARK0000  'MARKER'                 'INTORG'
    C0000000            OBJROW                                  852
    C0000000            R0000000                                368
    C0000000            IC0                                       1
    C0000001            OBJROW                                  855
    C0000001            R0000000                                707
    C0000001            IC1                                       1
    C0000002            OBJROW                                  450
    C0000002            R0000000                                622
    C0000002            IC2                                       1
    C0000003            OBJROW                                  448
    C0000003            R0000000                                 28
    C0000003            IC3                                       1
    C0000004            OBJROW                                  746
    C0000004            R0000000                                 63
    C0000004            IC4                                       1
    C0000005            OBJROW                                  865
    C0000005            R0000000                                340
    C0000005            IC5                                       1
    C0000006            OBJROW                                  802
    C0000006            R0000000                                791
    C0000006            IC6                                       1
    C0000007            OBJROW                                  343
    C0000007            R0000000                                346
    C0000007            IC7                                       1
    C0000008            OBJROW                                  644
    C0000008            R0000000                                352
    C0000008            IC8                                       1
    C0000009            OBJROW                                  159
    C0000009            R0000000                                914
    C0000009            IC9                                       1
    C0000010            OBJROW                                  946
    C0000010            R0000000                                288
    C0000010            IC10                                      1
    C0000011            OBJROW                                   89
    C0000011            R0000000                                763
    C0000011            IC11                                      1
    C0000012            OBJROW                                  184
    C0000012            R0000000                                342
    C0000012            IC12                                      1
    C0000013            OBJROW                                  371
    C0000013            R0000000                                484
    C0000013            IC13                                      1
    C0000014            OBJROW                                  294
    C0000014            R0000000                                910
    C0000014            IC14                                      1
    C0000015            OBJROW                                  317
    C0000015            R0000000                                548
    C0000015            IC15                                      1
    C0000016            OBJROW                                  414
    C0000016            R0000000                                447
    C0000016            IC16                                      1
    C0000017            OBJROW                                   75
    C0000017            R0000000                                740
    C0000017            IC17                                      1
    C0000018            OBJROW                                  536
    C0000018            R0000000                                  5
    C0000018            IC18                                      1
    C0000019            OBJROW                                  379
    C0000019            R0000000                                662
    C0000019            IC19                                      1
    x0                  IC0                                       1
    x0                  interdictionBudget                      746
    x1                  IC1                                       1
    x1                  interdictionBudget                      608
    x2                  IC2                                       1
    x2                  interdictionBudget                      890
    x3                  IC3                                       1
    x3                  interdictionBudget                      273
    x4                  IC4                                       1
    x4                  interdictionBudget                      834
    x5                  IC5                                       1
    x5                  interdictionBudget                      313
    x6                  IC6                                       1
    x6                  interdictionBudget                      754
    x7                  IC7                                       1
    x7                  interdictionBudget                       49
    x8                  IC8                                       1
    x8                  interdictionBudget                       24
    x9                  IC9                                       1
    x9                  interdictionBudget                      107
    x10                 IC10                                      1
    x10                 interdictionBudget                      854
    x11                 IC11                                      1
    x11                 interdictionBudget                      756
    x12                 IC12                                      1
    x12                 interdictionBudget                      991
    x13                 IC13                                      1
    x13                 interdictionBudget                      418
    x14                 IC14                                      1
    x14                 interdictionBudget                       41
    x15                 IC15                                      1
    x15                 interdictionBudget                      874
    x16                 IC16                                      1
    x16                 interdictionBudget                      159
    x17                 IC17                                      1
    x17                 interdictionBudget                      147
    x18                 IC18                                      1
    x18                 interdictionBudget                       71
    x19                 IC19                                      1
    x19                 interdictionBudget                      611
    MARK0001  'MARKER'                 'INTEND'
RHS
    rhs                 R0000000                               4860
    rhs                 IC0                                       1
    rhs                 IC1                                       1
    rhs                 IC2                                       1
    rhs                 IC3                                       1
    rhs                 IC4                                       1
    rhs                 IC5                                       1
    rhs                 IC6                                       1
    rhs                 IC7                                       1
    rhs                 IC8                                       1
    rhs                 IC9                                       1
    rhs                 IC10                                      1
    rhs                 IC11                                      1
    rhs                 IC12                                      1
    rhs                 IC13                                      1
    rhs                 IC14                                      1
    rhs                 IC15                                      1
    rhs                 IC16                                      1
    rhs                 IC17                                      1
    rhs                 IC18                                      1
    rhs                 IC19                                      1
    rhs                 interdictionBudget                     4760
BOUNDS
 UP bnd                 C0000000                                  1
 UP bnd                 C0000001                                  1
 UP bnd                 C0000002                                  1
 UP bnd                 C0000003                                  1
 UP bnd                 C0000004                                  1
 UP bnd                 C0000005                                  1
 UP bnd                 C0000006                                  1
 UP bnd                 C0000007                                  1
 UP bnd                 C0000008                                  1
 UP bnd                 C0000009                                  1
 UP bnd                 C0000010                                  1
 UP bnd                 C0000011                                  1
 UP bnd                 C0000012                                  1
 UP bnd                 C0000013                                  1
 UP bnd                 C0000014                                  1
 UP bnd                 C0000015                                  1
 UP bnd                 C0000016                                  1
 UP bnd                 C0000017                                  1
 UP bnd                 C0000018                                  1
 UP bnd                 C0000019                                  1
 UP bnd                 x0                                        1
 UP bnd                 x1                                        1
 UP bnd                 x2                                        1
 UP bnd                 x3                                        1
 UP bnd                 x4                                        1
 UP bnd                 x5                                        1
 UP bnd                 x6                                        1
 UP bnd                 x7                                        1
 UP bnd                 x8                                        1
 UP bnd                 x9                                        1
 UP bnd                 x10                                       1
 UP bnd                 x11                                       1
 UP bnd                 x12                                       1
 UP bnd                 x13                                       1
 UP bnd                 x14                                       1
 UP bnd                 x15                                       1
 UP bnd                 x16                                       1
 UP bnd                 x17                                       1
 UP bnd                 x18                                       1
 UP bnd                 x19                                       1
ENDATA
